NAME : portcgen-21-28
COMMENT : portcgen N=21, seed=28
TYPE : TSP
DIMENSION : 21
EDGE_WEIGHT_TYPE : EUC_2D
NODE_COORD_SECTION
1 154097 -113356
2 243119 -217027
3 -204469 368794
4 -120083 81970
5 -164600 -27929
6 -438313 -116519
7 244489 -246927
8 -17456 429866
9 55300 231526
10 -230941 359713
11 -37080 89105
12 292069 -359909
13 359925 -199952
14 -211875 -173519
15 -6429 -7359
16 211407 -224202
17 233953 -6922
18 -171375 -174352
19 -94627 -145658
20 433578 -30979
21 262818 29758
